tsp_instances/TSP50/instance122.tsp
NODE_COORD_SECTION
0 37 6
1 115 105
2 161 42
3 184 132
4 49 138
5 139 146
6 187 5
7 59 82
8 96 36
9 103 100
10 174 60
11 146 22
12 153 170
13 152 88
14 92 187
15 167 195
16 117 89
17 81 106
18 89 192
19 94 21
20 161 179
21 70 79
22 116 110
23 45 41
24 30 127
25 59 181
26 123 4
27 139 194
28 24 160
29 104 60
30 77 194
31 66 170
32 40 121
33 5 41
34 142 183
35 162 17
36 126 56
37 81 157
38 146 117
39 185 109
40 139 5
41 155 41
42 168 67
43 11 91
44 44 64
45 194 9
46 50 130
47 166 29
48 179 43
49 56 1
