tsp_instances/TSP50/instance122.opt.tour
TOUR_SECTION
1
34
44
25
33
47
5
29
26
32
38
31
19
15
28
35
16
21
13
6
39
4
40
14
43
11
49
46
7
36
48
3
42
12
41
27
20
9
30
37
17
2
23
10
18
22
8
45
24
50
-1